(set-logic ALL)
(declare-fun seed0_T_1 () Bool)
(declare-fun seed0_T_2 () Bool)
(declare-fun seed0_T_3 () Bool)
(declare-fun seed0_T_4 () Bool)
(declare-fun seed0_var_0xINPUT_100538 () String)
(assert (and (or (= seed0_T_1 (= "-" seed0_var_0xINPUT_100538)) (str.<= (str.++ seed0_var_0xINPUT_100538 "") (str.++ seed0_var_0xINPUT_100538 "O"))) (or (= seed0_T_2 (not seed0_T_1)) (str.<= (str.++ seed0_var_0xINPUT_100538 "9bxQnVSX") (str.++ seed0_var_0xINPUT_100538 "Ww8mduj"))) (or seed0_T_2 (str.prefixof (str.++ seed0_var_0xINPUT_100538 "lpe6HUW") (str.++ seed0_var_0xINPUT_100538 "Y0xcPi9E5"))) (or (= seed0_T_3 (= "" seed0_var_0xINPUT_100538)) (xor (str.<= (str.++ seed0_var_0xINPUT_100538 "inHsvuQ") (str.++ seed0_var_0xINPUT_100538 "r8a0XoOpxZtdW25S9G")) (str.< (str.++ seed0_var_0xINPUT_100538 "NJanhe5kHW") (str.++ seed0_var_0xINPUT_100538 "gybWlJCZRmfLXAB")))) (or (= seed0_T_4 (not seed0_T_3)) (and (str.suffixof (str.++ seed0_var_0xINPUT_100538 "Jgq0dADW") (str.++ seed0_var_0xINPUT_100538 "yjzcPHrhqA9YnUZ")) (str.contains (str.++ seed0_var_0xINPUT_100538 "dpgfzCPG1SF9otaMu2") (str.++ seed0_var_0xINPUT_100538 "GqzB7JaXIjAxTymsRMV")))) (or seed0_T_4 (xor (str.suffixof (str.++ seed0_var_0xINPUT_100538 "dR0K") (str.++ seed0_var_0xINPUT_100538 "GY2thDUpoV6w5s0gjyxz")) (str.suffixof (str.++ seed0_var_0xINPUT_100538 "p9SJayZkj08PwY2tR") (str.++ seed0_var_0xINPUT_100538 "VpJWNt"))))))
(check-sat)
(exit)